100 79286

 403 807
39 235
119 675
335 561
336 302
539 38
616 136
74 822
191 421
324 219
147 348
767 808
284 546
213 864
635 79
718 748
929 895
752 273
394 161
339 687
798 878
22 308
771 374
869 976
105 733
466 9
459 801
432 444
770 113
716 989
822 205
774 405
619 698
763 853
936 197
221 778
379 774
222 760
258 115
713 121
367 653
770 65
349 276
225 825
714 239
738 302
236 392
183 522
712 969
869 369
758 233
444 195
865 907
623 12
6 906
236 921
127 689
104 177
749 217
915 11
480 446
155 630
257 164
235 551
500 53
289 218
510 718
552 999
800 824
709 360
785 385
894 56
776 118
569 900
298 253
610 798
137 780
376 803
87 845
419 180
754 415
199 870
463 235
437 855
310 708
596 820
754 80
281 647
323 22
764 477
702 843
951 440
942 737
152 570
994 93
302 192
278 103
651 396
688 7
8 640
